(declare-const C0 String)
(declare-const R0 String)
(declare-const P00 String)
(declare-const P10 String)
(declare-const P11 String)
(declare-const I0 Int)
(declare-const I1 Int)
(declare-const R1 Int)
(declare-const P01 Int)
(declare-const P02 Int)
(declare-const O Int)
(declare-const lR0 Int)
(declare-const lR1 Int)
(declare-const lP00 Int)
(declare-const lP01 Int)
(declare-const lP02 Int)
(declare-const lP10 Int)
(declare-const lP11 Int)
(declare-const lO Int)
(assert (and (>= lR0 3) (< lR0 5)))
(assert (and (>= lR1 3) (< lR1 5)))
(assert (and (>= lP00 0) (< lP00 lR0)))
(assert (and (>= lP01 0) (< lP01 lR0)))
(assert (and (>= lP02 0) (< lP02 lR0)))
(assert (and (>= lP10 0) (< lP10 lR1)))
(assert (and (>= lP11 0) (< lP11 lR1)))
(assert (not (= lR0 lR1)))
(assert (not (= lP00 0)))
(assert (not (= lP00 1)))
(assert (not (= lP10 0)))
(assert (not (= lP10 1)))
(assert (not (= lP11 0)))
(assert (not (= lP11 1)))
(assert (not (= lP01 2)))
(assert (not (= lP02 2)))
(assert (not (= lR1 lP00)))
(assert (not (= lR0 lO)))
(assert (= R0 (str.substr P00 P01 P02)))
(assert (= R1 (seq.last_indexof P10 P11)))
(assert (=> (= lP01 0) (= I0 P01)))
(assert (=> (= lP01 1) (= I1 P01)))
(assert (=> (= lP02 0) (= I0 P02)))
(assert (=> (= lP02 1) (= I1 P02)))
(assert (=> (= lP00 2) (= C0 P00)))
(assert (=> (= lP10 2) (= C0 P10)))
(assert (=> (= lP11 2) (= C0 P11)))
(assert (=> (= lR0 lP00) (= R0 P00)))
(assert (=> (= lR1 lP01) (= R1 P01)))
(assert (=> (= lR1 lP02) (= R1 P02)))
(assert (=> (= lR0 lP10) (= R0 P10)))
(assert (=> (= lR0 lP11) (= R0 P11)))
(assert (=> (= lR1 lO) (= R1 O)))
(assert (or (= lP01 0) (= lP02 0)))
(assert (or (= lP01 1) (= lP02 1)))
(assert (or (= lP00 2) (= lP10 2) (= lP11 2)))
(assert (or (= lR0 lP10) (= lR0 lP11)))
(assert (or (= lR1 lO) (= lR1 lP01) (= lR1 lP02)))
(assert (= O 24))
(assert (= I0 2))
(assert (= I1 3))
(check-sat)
